
  22    4
  10   10   10   10

   0   0   0   0   0   4 2 3 6 9 
   7  10  10  10  10   6 21 17 13 11 7 4 
   5  10  10  10  10   3 8 7 5 
   5  10  10  10  10   5 20 18 15 14 8 
   9  10  10  10  10   5 18 17 16 14 11 
   6  10  10  10  10   4 17 16 14 10 
   3  10  10  10  10   2 12 10 
   4  10  10  10  10   2 19 16 
   2  10  10  10  10   2 20 14 
   8  10  10  10  10   1 15 
   9  10  10  10  10   1 15 
   8  10  10  10  10   1 14 
   6  10  10  10  10   1 14 
   9  10  10  10  10   1 22
   6  10  10  10  10   1 22
   2  10  10  10  10   1 22
   5  10  10  10  10   1 22
  10  10  10  10  10   1 22
   6  10  10  10  10   1 22
   4  10  10  10  10   1 22
   9  10  10  10  10   1 22
   0   0   0   0   0   0 
